100 152330
13 76 19 59 51 36 77 55 42 7 61 52 87 66 40 27 20 8 18 62 84 57 58 79 38 28 32 68 21 85 67 93 91 16 89 24 81 56 14 45 4 88 2 11 100 99 98 22 90 70 60 1 49 30 12 50 10 92 26 6 33 3 64 44 41 23 69 35 96 48 74 97 83 25 46 73 86 37 17 47 29 75 78 43 95 63 80 5 9 53 34 82 15 71 65 94 54 39 72 31 
